8
0, 277, 492, 247, 518, 14, 1001, 686
277, 0, 486, 124, 433, 263, 887, 678
492, 486, 0, 365, 139, 492, 537, 198
247, 124, 365, 0, 328, 236, 800, 560
518, 433, 139, 328, 0, 513, 483, 266
14, 263, 492, 236, 513, 0, 997, 686
1001, 887, 537, 800, 483, 997, 0, 414
686, 678, 198, 560, 266, 686, 414, 0
